Minimize
	value: tt

Subject to
tt + 1024 s_1_1 > 0.0
tt - t_1_1 - 1025.099261 s_1_1 + 1.099261 s_1_6 > -1023.573033
tt + 1024 s_2_1 > 0.0
tt - t_2_1 - 1025.471935 s_2_1 + 1.471935 s_2_6 > -1013.246200
tt + 1024 s_1_2 > 0.0
tt - t_1_2 - 1025.099261 s_1_2 + 1.099261 s_1_7 > -1023.468736
tt + 1024 s_2_2 > 0.0
tt - t_2_2 - 1025.471935 s_2_2 + 1.471935 s_2_7 > -1013.083700
tt + 1024 s_1_3 > 0.0
tt - t_1_3 - 1025.099261 s_1_3 + 1.099261 s_1_7 > -1023.346558
tt + 1024 s_2_3 > 0.0
tt - t_2_3 - 1025.471935 s_2_3 + 1.471935 s_2_7 > -1009.421300
tt + 1024 s_1_4 > 0.0
tt - t_1_4 - 1026.198521 s_1_4 + 2.198521 s_1_3 > -1023.602200
tt + 1024 s_2_4 > 0.0
tt - t_2_4 - 1026.943870 s_2_4 + 2.943870 s_2_3 > -1013.085700
tt + 1024 s_1_5 > 0.0
tt - t_1_5 - 1027.297782 s_1_5 + 3.297782 s_1_6 > -1023.655422
tt + 1024 s_2_5 > 0.0
tt - t_2_5 - 1028.415804 s_2_5 + 4.415804 s_2_6 > -1015.566100
tt + 1024 s_1_6 > 0.0
tt - t_1_6 - 1024.000000 s_1_6 > -1021.693211
tt + 1024 s_2_6 > 0.0
tt - t_2_6 - 1024.000000 s_2_6 > -1008.837026
tt + 1024 s_1_7 > 0.0
tt - t_1_7 - 1024.000000 s_1_7 > -1023.322325
tt + 1024 s_2_7 > 0.0
tt - t_2_7 - 1024.000000 s_2_7 > -1017.941500
tt + 1024 s_1_8 > 0.0
tt - t_1_8 - 1037.740758 s_1_8 + 13.740758 s_1_3 > -1023.818900
tt + 1024 s_2_8 > 0.0
tt - t_2_8 - 1042.399185 s_2_8 + 18.399185 s_2_3 > -1022.664800
s_1_1 + s_2_1  = 1
s_1_2 + s_2_2  = 1
s_1_3 + s_2_3  = 1
s_1_4 + s_2_4  = 1
s_1_5 + s_2_5  = 1
s_1_6 + s_2_6  = 1
s_1_7 + s_2_7  = 1
s_1_8 + s_2_8  = 1
s_1_1 + s_1_2 + 1024 r_1_1_2 >= 2
- s_1_1 - s_1_2 - 1024 r_1_1_2 >= -1025
t_1_1 - t_1_2 - 1024.000000 u_1_1_2 - 1.099261 s_1_2 + 1.099261 s_1_7 + 2048.000000 r_1_1_2 > -1023.468736
s_2_1 + s_2_2 + 1024 r_2_1_2 >= 2
- s_2_1 - s_2_2 - 1024 r_2_1_2 >= -1025
t_2_1 - t_2_2 - 1024.000000 u_2_1_2 - 1.471935 s_2_2 + 1.471935 s_2_7 + 2048.000000 r_2_1_2 > -1013.083700
s_1_1 + s_1_3 + 1024 r_1_1_3 >= 2
- s_1_1 - s_1_3 - 1024 r_1_1_3 >= -1025
t_1_1 - t_1_3 - 1024.000000 u_1_1_3 - 1.099261 s_1_3 + 1.099261 s_1_7 + 2048.000000 r_1_1_3 > -1023.346558
s_2_1 + s_2_3 + 1024 r_2_1_3 >= 2
- s_2_1 - s_2_3 - 1024 r_2_1_3 >= -1025
t_2_1 - t_2_3 - 1024.000000 u_2_1_3 - 1.471935 s_2_3 + 1.471935 s_2_7 + 2048.000000 r_2_1_3 > -1009.421300
s_1_1 + s_1_4 + 1024 r_1_1_4 >= 2
- s_1_1 - s_1_4 - 1024 r_1_1_4 >= -1025
t_1_1 - t_1_4 - 1024.000000 u_1_1_4 - 1.099261 s_1_4 + 1.099261 s_1_3 + 2048.000000 r_1_1_4 > -1023.602200
s_2_1 + s_2_4 + 1024 r_2_1_4 >= 2
- s_2_1 - s_2_4 - 1024 r_2_1_4 >= -1025
t_2_1 - t_2_4 - 1024.000000 u_2_1_4 - 1.471935 s_2_4 + 1.471935 s_2_3 + 2048.000000 r_2_1_4 > -1013.085700
s_1_1 + s_1_5 + 1024 r_1_1_5 >= 2
- s_1_1 - s_1_5 - 1024 r_1_1_5 >= -1025
t_1_1 - t_1_5 - 1024.000000 u_1_1_5 - 1.648891 s_1_5 + 1.648891 s_1_6 + 2048.000000 r_1_1_5 > -1023.655422
s_2_1 + s_2_5 + 1024 r_2_1_5 >= 2
- s_2_1 - s_2_5 - 1024 r_2_1_5 >= -1025
t_2_1 - t_2_5 - 1024.000000 u_2_1_5 - 2.207902 s_2_5 + 2.207902 s_2_6 + 2048.000000 r_2_1_5 > -1015.566100
t_1_1 - t_1_6 - 1024.000000 s_1_6 > -1021.693211
t_1_1 - t_2_6 - 1024.000000 s_2_6 > -1008.837026
t_2_1 - t_1_6 - 1024.000000 s_1_6 > -1021.693211
t_2_1 - t_2_6 - 1024.000000 s_2_6 > -1008.837026
s_1_1 + s_1_7 + 1024 r_1_1_7 >= 2
- s_1_1 - s_1_7 - 1024 r_1_1_7 >= -1025
t_1_1 - t_1_7 - 1024.000000 u_1_1_7 + 2048.000000 r_1_1_7 > -1023.322325
s_2_1 + s_2_7 + 1024 r_2_1_7 >= 2
- s_2_1 - s_2_7 - 1024 r_2_1_7 >= -1025
t_2_1 - t_2_7 - 1024.000000 u_2_1_7 + 2048.000000 r_2_1_7 > -1017.941500
t_1_8 - t_1_1 - 1.526227 s_1_1 + 1.099261 s_1_6 > 0.0
t_1_8 - t_2_1 - 12.225735 s_2_1 + 1.471935 s_2_6 > 0.0
t_2_8 - t_1_1 - 1.526227 s_1_1 + 1.099261 s_1_6 > 0.0
t_2_8 - t_2_1 - 12.225735 s_2_1 + 1.471935 s_2_6 > 0.0
s_1_2 + s_1_1 + 1024 r_1_1_2 >= 2
- s_1_2 - s_1_1 - 1024 r_1_1_2 >= -1025
t_1_2 - t_1_1 + 1024.000000 u_1_1_2 - 1.099261 s_1_1 + 1.099261 s_1_6 + 2048.000000 r_1_1_2 > 0.426967
s_2_2 + s_2_1 + 1024 r_2_1_2 >= 2
- s_2_2 - s_2_1 - 1024 r_2_1_2 >= -1025
t_2_2 - t_2_1 + 1024.000000 u_2_1_2 - 1.471935 s_2_1 + 1.471935 s_2_6 + 2048.000000 r_2_1_2 > 10.753800
s_1_2 + s_1_3 + 1024 r_1_2_3 >= 2
- s_1_2 - s_1_3 - 1024 r_1_2_3 >= -1025
t_1_2 - t_1_3 - 1024.000000 u_1_2_3 - 1.099261 s_1_3 + 1.099261 s_1_7 + 2048.000000 r_1_2_3 > -1023.346558
s_2_2 + s_2_3 + 1024 r_2_2_3 >= 2
- s_2_2 - s_2_3 - 1024 r_2_2_3 >= -1025
t_2_2 - t_2_3 - 1024.000000 u_2_2_3 - 1.471935 s_2_3 + 1.471935 s_2_7 + 2048.000000 r_2_2_3 > -1009.421300
s_1_2 + s_1_4 + 1024 r_1_2_4 >= 2
- s_1_2 - s_1_4 - 1024 r_1_2_4 >= -1025
t_1_2 - t_1_4 - 1024.000000 u_1_2_4 - 1.099261 s_1_4 + 1.099261 s_1_3 + 2048.000000 r_1_2_4 > -1023.602200
s_2_2 + s_2_4 + 1024 r_2_2_4 >= 2
- s_2_2 - s_2_4 - 1024 r_2_2_4 >= -1025
t_2_2 - t_2_4 - 1024.000000 u_2_2_4 - 1.471935 s_2_4 + 1.471935 s_2_3 + 2048.000000 r_2_2_4 > -1013.085700
s_1_2 + s_1_5 + 1024 r_1_2_5 >= 2
- s_1_2 - s_1_5 - 1024 r_1_2_5 >= -1025
t_1_2 - t_1_5 - 1024.000000 u_1_2_5 - 1.648891 s_1_5 + 1.648891 s_1_6 + 2048.000000 r_1_2_5 > -1023.655422
s_2_2 + s_2_5 + 1024 r_2_2_5 >= 2
- s_2_2 - s_2_5 - 1024 r_2_2_5 >= -1025
t_2_2 - t_2_5 - 1024.000000 u_2_2_5 - 2.207902 s_2_5 + 2.207902 s_2_6 + 2048.000000 r_2_2_5 > -1015.566100
s_1_2 + s_1_6 + 1024 r_1_2_6 >= 2
- s_1_2 - s_1_6 - 1024 r_1_2_6 >= -1025
t_1_2 - t_1_6 - 1024.000000 u_1_2_6 + 2048.000000 r_1_2_6 > -1021.693211
s_2_2 + s_2_6 + 1024 r_2_2_6 >= 2
- s_2_2 - s_2_6 - 1024 r_2_2_6 >= -1025
t_2_2 - t_2_6 - 1024.000000 u_2_2_6 + 2048.000000 r_2_2_6 > -1008.837026
t_1_2 - t_1_7 - 1024.000000 s_1_7 > -1023.322325
t_1_2 - t_2_7 - 1024.000000 s_2_7 > -1017.941500
t_2_2 - t_1_7 - 1024.000000 s_1_7 > -1023.322325
t_2_2 - t_2_7 - 1024.000000 s_2_7 > -1017.941500
t_1_8 - t_1_2 - 1.630525 s_1_2 + 1.099261 s_1_7 > 0.0
t_1_8 - t_2_2 - 12.388235 s_2_2 + 1.471935 s_2_7 > 0.0
t_2_8 - t_1_2 - 1.630525 s_1_2 + 1.099261 s_1_7 > 0.0
t_2_8 - t_2_2 - 12.388235 s_2_2 + 1.471935 s_2_7 > 0.0
s_1_3 + s_1_1 + 1024 r_1_1_3 >= 2
- s_1_3 - s_1_1 - 1024 r_1_1_3 >= -1025
t_1_3 - t_1_1 + 1024.000000 u_1_1_3 - 1.099261 s_1_1 + 1.099261 s_1_6 + 2048.000000 r_1_1_3 > 0.426967
s_2_3 + s_2_1 + 1024 r_2_1_3 >= 2
- s_2_3 - s_2_1 - 1024 r_2_1_3 >= -1025
t_2_3 - t_2_1 + 1024.000000 u_2_1_3 - 1.471935 s_2_1 + 1.471935 s_2_6 + 2048.000000 r_2_1_3 > 10.753800
s_1_3 + s_1_2 + 1024 r_1_2_3 >= 2
- s_1_3 - s_1_2 - 1024 r_1_2_3 >= -1025
t_1_3 - t_1_2 + 1024.000000 u_1_2_3 - 1.099261 s_1_2 + 1.099261 s_1_7 + 2048.000000 r_1_2_3 > 0.531264
s_2_3 + s_2_2 + 1024 r_2_2_3 >= 2
- s_2_3 - s_2_2 - 1024 r_2_2_3 >= -1025
t_2_3 - t_2_2 + 1024.000000 u_2_2_3 - 1.471935 s_2_2 + 1.471935 s_2_7 + 2048.000000 r_2_2_3 > 10.916300
t_1_4 - t_1_3 - 1.752702 s_1_3 + 1.099261 s_1_7 > 0.0
t_1_4 - t_2_3 - 16.050635 s_2_3 + 1.471935 s_2_7 > 0.0
t_2_4 - t_1_3 - 1.752702 s_1_3 + 1.099261 s_1_7 > 0.0
t_2_4 - t_2_3 - 16.050635 s_2_3 + 1.471935 s_2_7 > 0.0
s_1_3 + s_1_5 + 1024 r_1_3_5 >= 2
- s_1_3 - s_1_5 - 1024 r_1_3_5 >= -1025
t_1_3 - t_1_5 - 1024.000000 u_1_3_5 - 1.648891 s_1_5 + 1.648891 s_1_6 + 2048.000000 r_1_3_5 > -1023.655422
s_2_3 + s_2_5 + 1024 r_2_3_5 >= 2
- s_2_3 - s_2_5 - 1024 r_2_3_5 >= -1025
t_2_3 - t_2_5 - 1024.000000 u_2_3_5 - 2.207902 s_2_5 + 2.207902 s_2_6 + 2048.000000 r_2_3_5 > -1015.566100
s_1_3 + s_1_6 + 1024 r_1_3_6 >= 2
- s_1_3 - s_1_6 - 1024 r_1_3_6 >= -1025
t_1_3 - t_1_6 - 1024.000000 u_1_3_6 + 2048.000000 r_1_3_6 > -1021.693211
s_2_3 + s_2_6 + 1024 r_2_3_6 >= 2
- s_2_3 - s_2_6 - 1024 r_2_3_6 >= -1025
t_2_3 - t_2_6 - 1024.000000 u_2_3_6 + 2048.000000 r_2_3_6 > -1008.837026
t_1_3 - t_1_7 - 1024.000000 s_1_7 > -1023.322325
t_1_3 - t_2_7 - 1024.000000 s_2_7 > -1017.941500
t_2_3 - t_1_7 - 1024.000000 s_1_7 > -1023.322325
t_2_3 - t_2_7 - 1024.000000 s_2_7 > -1017.941500
t_1_8 - t_1_3 - 1.752702 s_1_3 + 1.099261 s_1_7 > 0.0
t_1_8 - t_2_3 - 16.050635 s_2_3 + 1.471935 s_2_7 > 0.0
t_2_8 - t_1_3 - 1.752702 s_1_3 + 1.099261 s_1_7 > 0.0
t_2_8 - t_2_3 - 16.050635 s_2_3 + 1.471935 s_2_7 > 0.0
s_1_4 + s_1_1 + 1024 r_1_1_4 >= 2
- s_1_4 - s_1_1 - 1024 r_1_1_4 >= -1025
t_1_4 - t_1_1 + 1024.000000 u_1_1_4 - 1.099261 s_1_1 + 1.099261 s_1_6 + 2048.000000 r_1_1_4 > 0.426967
s_2_4 + s_2_1 + 1024 r_2_1_4 >= 2
- s_2_4 - s_2_1 - 1024 r_2_1_4 >= -1025
t_2_4 - t_2_1 + 1024.000000 u_2_1_4 - 1.471935 s_2_1 + 1.471935 s_2_6 + 2048.000000 r_2_1_4 > 10.753800
s_1_4 + s_1_2 + 1024 r_1_2_4 >= 2
- s_1_4 - s_1_2 - 1024 r_1_2_4 >= -1025
t_1_4 - t_1_2 + 1024.000000 u_1_2_4 - 1.099261 s_1_2 + 1.099261 s_1_7 + 2048.000000 r_1_2_4 > 0.531264
s_2_4 + s_2_2 + 1024 r_2_2_4 >= 2
- s_2_4 - s_2_2 - 1024 r_2_2_4 >= -1025
t_2_4 - t_2_2 + 1024.000000 u_2_2_4 - 1.471935 s_2_2 + 1.471935 s_2_7 + 2048.000000 r_2_2_4 > 10.916300
s_1_4 + s_1_5 + 1024 r_1_4_5 >= 2
- s_1_4 - s_1_5 - 1024 r_1_4_5 >= -1025
t_1_4 - t_1_5 - 1024.000000 u_1_4_5 - 1.648891 s_1_5 + 1.648891 s_1_6 + 2048.000000 r_1_4_5 > -1023.655422
s_2_4 + s_2_5 + 1024 r_2_4_5 >= 2
- s_2_4 - s_2_5 - 1024 r_2_4_5 >= -1025
t_2_4 - t_2_5 - 1024.000000 u_2_4_5 - 2.207902 s_2_5 + 2.207902 s_2_6 + 2048.000000 r_2_4_5 > -1015.566100
s_1_4 + s_1_6 + 1024 r_1_4_6 >= 2
- s_1_4 - s_1_6 - 1024 r_1_4_6 >= -1025
t_1_4 - t_1_6 - 1024.000000 u_1_4_6 + 2048.000000 r_1_4_6 > -1021.693211
s_2_4 + s_2_6 + 1024 r_2_4_6 >= 2
- s_2_4 - s_2_6 - 1024 r_2_4_6 >= -1025
t_2_4 - t_2_6 - 1024.000000 u_2_4_6 + 2048.000000 r_2_4_6 > -1008.837026
t_1_4 - t_1_7 - 1024.000000 s_1_7 > -1023.322325
t_1_4 - t_2_7 - 1024.000000 s_2_7 > -1017.941500
t_2_4 - t_1_7 - 1024.000000 s_1_7 > -1023.322325
t_2_4 - t_2_7 - 1024.000000 s_2_7 > -1017.941500
t_1_8 - t_1_4 - 1.497061 s_1_4 + 1.099261 s_1_3 > 0.0
t_1_8 - t_2_4 - 12.386235 s_2_4 + 1.471935 s_2_3 > 0.0
t_2_8 - t_1_4 - 1.497061 s_1_4 + 1.099261 s_1_3 > 0.0
t_2_8 - t_2_4 - 12.386235 s_2_4 + 1.471935 s_2_3 > 0.0
s_1_5 + s_1_1 + 1024 r_1_1_5 >= 2
- s_1_5 - s_1_1 - 1024 r_1_1_5 >= -1025
t_1_5 - t_1_1 + 1024.000000 u_1_1_5 - 1.099261 s_1_1 + 1.099261 s_1_6 + 2048.000000 r_1_1_5 > 0.426967
s_2_5 + s_2_1 + 1024 r_2_1_5 >= 2
- s_2_5 - s_2_1 - 1024 r_2_1_5 >= -1025
t_2_5 - t_2_1 + 1024.000000 u_2_1_5 - 1.471935 s_2_1 + 1.471935 s_2_6 + 2048.000000 r_2_1_5 > 10.753800
s_1_5 + s_1_2 + 1024 r_1_2_5 >= 2
- s_1_5 - s_1_2 - 1024 r_1_2_5 >= -1025
t_1_5 - t_1_2 + 1024.000000 u_1_2_5 - 1.099261 s_1_2 + 1.099261 s_1_7 + 2048.000000 r_1_2_5 > 0.531264
s_2_5 + s_2_2 + 1024 r_2_2_5 >= 2
- s_2_5 - s_2_2 - 1024 r_2_2_5 >= -1025
t_2_5 - t_2_2 + 1024.000000 u_2_2_5 - 1.471935 s_2_2 + 1.471935 s_2_7 + 2048.000000 r_2_2_5 > 10.916300
s_1_5 + s_1_3 + 1024 r_1_3_5 >= 2
- s_1_5 - s_1_3 - 1024 r_1_3_5 >= -1025
t_1_5 - t_1_3 + 1024.000000 u_1_3_5 - 1.099261 s_1_3 + 1.099261 s_1_7 + 2048.000000 r_1_3_5 > 0.653442
s_2_5 + s_2_3 + 1024 r_2_3_5 >= 2
- s_2_5 - s_2_3 - 1024 r_2_3_5 >= -1025
t_2_5 - t_2_3 + 1024.000000 u_2_3_5 - 1.471935 s_2_3 + 1.471935 s_2_7 + 2048.000000 r_2_3_5 > 14.578700
s_1_5 + s_1_4 + 1024 r_1_4_5 >= 2
- s_1_5 - s_1_4 - 1024 r_1_4_5 >= -1025
t_1_5 - t_1_4 + 1024.000000 u_1_4_5 - 1.099261 s_1_4 + 1.099261 s_1_3 + 2048.000000 r_1_4_5 > 0.397800
s_2_5 + s_2_4 + 1024 r_2_4_5 >= 2
- s_2_5 - s_2_4 - 1024 r_2_4_5 >= -1025
t_2_5 - t_2_4 + 1024.000000 u_2_4_5 - 1.471935 s_2_4 + 1.471935 s_2_3 + 2048.000000 r_2_4_5 > 10.914300
t_1_5 - t_1_6 - 1024.000000 s_1_6 > -1021.693211
t_1_5 - t_2_6 - 1024.000000 s_2_6 > -1008.837026
t_2_5 - t_1_6 - 1024.000000 s_1_6 > -1021.693211
t_2_5 - t_2_6 - 1024.000000 s_2_6 > -1008.837026
t_1_5 - t_1_7 - 1024.000000 s_1_7 > -1023.322325
t_1_5 - t_2_7 - 1024.000000 s_2_7 > -1017.941500
t_2_5 - t_1_7 - 1024.000000 s_1_7 > -1023.322325
t_2_5 - t_2_7 - 1024.000000 s_2_7 > -1017.941500
t_1_8 - t_1_5 - 1.993469 s_1_5 + 1.648891 s_1_6 > 0.0
t_1_8 - t_2_5 - 10.641802 s_2_5 + 2.207902 s_2_6 > 0.0
t_2_8 - t_1_5 - 1.993469 s_1_5 + 1.648891 s_1_6 > 0.0
t_2_8 - t_2_5 - 10.641802 s_2_5 + 2.207902 s_2_6 > 0.0
s_1_6 + s_1_2 + 1024 r_1_2_6 >= 2
- s_1_6 - s_1_2 - 1024 r_1_2_6 >= -1025
t_1_6 - t_1_2 + 1024.000000 u_1_2_6 - 1.099261 s_1_2 + 1.099261 s_1_7 + 2048.000000 r_1_2_6 > 0.531264
s_2_6 + s_2_2 + 1024 r_2_2_6 >= 2
- s_2_6 - s_2_2 - 1024 r_2_2_6 >= -1025
t_2_6 - t_2_2 + 1024.000000 u_2_2_6 - 1.471935 s_2_2 + 1.471935 s_2_7 + 2048.000000 r_2_2_6 > 10.916300
s_1_6 + s_1_3 + 1024 r_1_3_6 >= 2
- s_1_6 - s_1_3 - 1024 r_1_3_6 >= -1025
t_1_6 - t_1_3 + 1024.000000 u_1_3_6 - 1.099261 s_1_3 + 1.099261 s_1_7 + 2048.000000 r_1_3_6 > 0.653442
s_2_6 + s_2_3 + 1024 r_2_3_6 >= 2
- s_2_6 - s_2_3 - 1024 r_2_3_6 >= -1025
t_2_6 - t_2_3 + 1024.000000 u_2_3_6 - 1.471935 s_2_3 + 1.471935 s_2_7 + 2048.000000 r_2_3_6 > 14.578700
s_1_6 + s_1_4 + 1024 r_1_4_6 >= 2
- s_1_6 - s_1_4 - 1024 r_1_4_6 >= -1025
t_1_6 - t_1_4 + 1024.000000 u_1_4_6 - 1.099261 s_1_4 + 1.099261 s_1_3 + 2048.000000 r_1_4_6 > 0.397800
s_2_6 + s_2_4 + 1024 r_2_4_6 >= 2
- s_2_6 - s_2_4 - 1024 r_2_4_6 >= -1025
t_2_6 - t_2_4 + 1024.000000 u_2_4_6 - 1.471935 s_2_4 + 1.471935 s_2_3 + 2048.000000 r_2_4_6 > 10.914300
s_1_6 + s_1_7 + 1024 r_1_6_7 >= 2
- s_1_6 - s_1_7 - 1024 r_1_6_7 >= -1025
t_1_6 - t_1_7 - 1024.000000 u_1_6_7 + 2048.000000 r_1_6_7 > -1023.322325
s_2_6 + s_2_7 + 1024 r_2_6_7 >= 2
- s_2_6 - s_2_7 - 1024 r_2_6_7 >= -1025
t_2_6 - t_2_7 - 1024.000000 u_2_6_7 + 2048.000000 r_2_6_7 > -1017.941500
s_1_7 + s_1_1 + 1024 r_1_1_7 >= 2
- s_1_7 - s_1_1 - 1024 r_1_1_7 >= -1025
t_1_7 - t_1_1 + 1024.000000 u_1_1_7 - 1.099261 s_1_1 + 1.099261 s_1_6 + 2048.000000 r_1_1_7 > 0.426967
s_2_7 + s_2_1 + 1024 r_2_1_7 >= 2
- s_2_7 - s_2_1 - 1024 r_2_1_7 >= -1025
t_2_7 - t_2_1 + 1024.000000 u_2_1_7 - 1.471935 s_2_1 + 1.471935 s_2_6 + 2048.000000 r_2_1_7 > 10.753800
s_1_7 + s_1_6 + 1024 r_1_6_7 >= 2
- s_1_7 - s_1_6 - 1024 r_1_6_7 >= -1025
t_1_7 - t_1_6 + 1024.000000 u_1_6_7 + 2048.000000 r_1_6_7 > 2.306789
s_2_7 + s_2_6 + 1024 r_2_6_7 >= 2
- s_2_7 - s_2_6 - 1024 r_2_6_7 >= -1025
t_2_7 - t_2_6 + 1024.000000 u_2_6_7 + 2048.000000 r_2_6_7 > 15.162974
Binary
s_1_1
s_2_1
s_1_2
s_2_2
s_1_3
s_2_3
s_1_4
s_2_4
s_1_5
s_2_5
s_1_6
s_2_6
s_1_7
s_2_7
s_1_8
s_2_8
u_1_1_2
r_1_1_2
u_2_1_2
r_2_1_2
u_1_1_3
r_1_1_3
u_2_1_3
r_2_1_3
u_1_1_4
r_1_1_4
u_2_1_4
r_2_1_4
u_1_1_5
r_1_1_5
u_2_1_5
r_2_1_5
u_1_1_7
r_1_1_7
u_2_1_7
r_2_1_7
u_1_2_3
r_1_2_3
u_2_2_3
r_2_2_3
u_1_2_4
r_1_2_4
u_2_2_4
r_2_2_4
u_1_2_5
r_1_2_5
u_2_2_5
r_2_2_5
u_1_2_6
r_1_2_6
u_2_2_6
r_2_2_6
u_1_3_5
r_1_3_5
u_2_3_5
r_2_3_5
u_1_3_6
r_1_3_6
u_2_3_6
r_2_3_6
u_1_4_5
r_1_4_5
u_2_4_5
r_2_4_5
u_1_4_6
r_1_4_6
u_2_4_6
r_2_4_6
u_1_6_7
r_1_6_7
u_2_6_7
r_2_6_7

End
